c This is QMaxSAT 2017 based on 14.07
c This is Glucose 3.0
c This is MiniSat 2.2.0
c WARNING: for repeatability, setting FPU to use double precision
c card = mrwto, comp = 0, pmodel = 0, narr = 2, mct = 14, verb = 0
cr firstCPXsol 0 0 0
c top = 80229
c |  Number of variables:    2420                                             |
c |  Number of clauses:      156160                                           |
c |  Weight of hard clauses: 80229                                            |
c |  Number of soft clauses: 364                                              |
c |  Number of unit soft clauses: 364                                         |
c |  Maximum Cardinality (by unit): 160456       (160456      )               |
c last restart ## conflicts  :  27 1148 
o 2235 | cpuTime 0.014393 s
c Sum of weights = 80228
c A number of soft clauses remained = 182
c MRWTO encoding for Pseudo-Boolean Constraints
c sizeMax=2235
c No.0 Divisor=14	generated by pow1
c No.1 Divisor=14	generated by pow1
c No.2 Divisor=14	generated by pow1
c p0= 14	p1= 14	p2= 14	
c number of digits = 4
c linkingVar[0].size = 14, linkingVar[1].size = 14, linkingVar[2].size = 12, linkingVar[3].size = 1, 
c Pseudo-Boolean Constraints: 4861 variables and 52929 clauses
c Sum of weights = 80228
c A number of soft clauses remained = 182
c MRWTO encoding for Pseudo-Boolean Constraints
c sizeMax=2235
c No.0 Divisor=14	generated by pow1
c No.1 Divisor=14	generated by pow1
c No.2 Divisor=14	generated by pow1
c p0= 14	p1= 14	p2= 14	
c number of digits = 4
c linkingVar[0].size = 14, linkingVar[1].size = 14, linkingVar[2].size = 12, linkingVar[3].size = 1, 
c Pseudo-Boolean Constraints: 4861 variables and 52929 clauses
c last restart ## conflicts  :  803 977 
o 2234 | cpuTime 1.09616 s
c last restart ## conflicts  :  247 1229 
o 2224 | cpuTime 1.32688 s
c last restart ## conflicts  :  972 1143 
o 2211 | cpuTime 1.47455 s
c last restart ## conflicts  :  220 1407 
o 2180 | cpuTime 1.58062 s
c last restart ## conflicts  :  455 1138 
o 2138 | cpuTime 2.24439 s
c last restart ## conflicts  :  218 1208 
o 2056 | cpuTime 2.73021 s
c last restart ## conflicts  :  422 1019 
o 2055 | cpuTime 31.5859 s
c last restart ## conflicts  :  2518 1048 
o 2052 | cpuTime 47.2173 s
c last restart ## conflicts  :  30 2762 
o 2042 | cpuTime 47.2216 s
c last restart ## conflicts  :  920 1282 
o 2038 | cpuTime 75.245 s
s OPTIMUM FOUND
cr positiVarArr: [ | 10@1(1->10) | 29@1(3->1) | 45@1(4->3) | 123@1(9->11) | 135@1(10->9) | 144@1(11->4) | 198@2(1->2) | 224@2(2->14) | 259@2(5->7) | 271@2(6->5) | 293@2(7->13) | 295@2(8->1) | 356@2(12->6) | 372@2(13->8) | 390@2(14->12) | ]
cr the 1-th chain: [ 1->10->9->11->4->3->1 ] (#non-depot=5) {#cumul.=6}
cr the 2-th chain: [ 1->2->14->12->6->5->7->13->8->1 ] (#non-depot=8) {#cumul.=14}
c Latest Answer = 0 by 11 loops
c restarts              : 11344
c conflicts             : 2241849        (9008 /sec)
c decisions             : 4353346        (0.00 % random) (17492 /sec)
c propagations          : 755100266      (3034017 /sec)
c conflict literals     : 159695093      (36.48 % deleted)
c Memory used           : 142.00 MB
c CPU time              : 248.878 s
